Bruniera/ragionamento automatico/progetto/benchmark/asp/mid10.lp
start(0).
limit(6).
n(14).
strada(0,1,16).
strada(0,2,8).
strada(0,3,13).
strada(0,4,15).
strada(0,5,10).
strada(0,6,5).
strada(0,7,15).
strada(0,10,4).
strada(0,11,19).
strada(1,4,2).
strada(1,8,7).
strada(1,10,10).
strada(1,11,20).
strada(2,0,2).
strada(2,4,20).
strada(2,6,15).
strada(2,7,0).
strada(3,6,3).
strada(3,7,14).
strada(3,11,14).
strada(4,0,15).
strada(4,1,14).
strada(4,5,1).
strada(4,7,12).
strada(4,10,4).
strada(4,11,7).
strada(4,12,11).
strada(5,4,9).
strada(5,9,8).
strada(5,11,7).
strada(5,12,14).
strada(6,0,17).
strada(6,4,9).
strada(6,5,6).
strada(6,11,10).
strada(6,13,8).
strada(7,0,12).
strada(7,3,15).
strada(7,6,12).
strada(7,12,3).
strada(8,0,7).
strada(8,4,3).
strada(8,7,2).
strada(8,9,4).
strada(8,11,0).
strada(8,12,11).
strada(8,13,10).
strada(9,1,19).
strada(9,2,9).
strada(9,3,19).
strada(9,8,9).
strada(9,12,9).
strada(10,0,7).
strada(10,9,5).
strada(10,11,17).
strada(11,1,6).
strada(11,2,15).
strada(11,4,0).
strada(11,5,13).
strada(12,0,10).
strada(12,1,7).
strada(12,2,12).
strada(12,3,17).
strada(12,4,12).
strada(12,5,15).
strada(12,11,5).
strada(12,13,17).
strada(13,2,0).
strada(13,6,18).
strada(13,7,12).
strada(13,8,4).
strada(13,9,9).
strada(13,12,10).
