Bruniera/ragionamento automatico/progetto/benchmark/minizinc/mid10.dzn
start = 1;
limit = 6;
n = 14;
m=[|-1,16,8,13,15,10,5,15,-1,-1,4,19,-1,-1,
|-1,-1,-1,-1,2,-1,-1,-1,7,-1,10,20,-1,-1,
|2,-1,-1,-1,20,-1,15,0,-1,-1,-1,-1,-1,-1,
|-1,-1,-1,-1,-1,-1,3,14,-1,-1,-1,14,-1,-1,
|15,14,-1,-1,-1,1,-1,12,-1,-1,4,7,11,-1,
|-1,-1,-1,-1,9,-1,-1,-1,-1,8,-1,7,14,-1,
|17,-1,-1,-1,9,6,-1,-1,-1,-1,-1,10,-1,8,
|12,-1,-1,15,-1,-1,12,-1,-1,-1,-1,-1,3,-1,
|7,-1,-1,-1,3,-1,-1,2,-1,4,-1,0,11,10,
|-1,19,9,19,-1,-1,-1,-1,9,-1,-1,-1,9,-1,
|7,-1,-1,-1,-1,-1,-1,-1,-1,5,-1,17,-1,-1,
|-1,6,15,-1,0,13,-1,-1,-1,-1,-1,-1,-1,-1,
|10,7,12,17,12,15,-1,-1,-1,-1,-1,5,-1,17,
|-1,-1,0,-1,-1,-1,18,12,4,9,-1,-1,10,-1,
|]
;